c 1 CONFIG_LS
c 2 CONFIG_SORT_BIG
c 3 CONFIG_HELP
c 4 CONFIG_DHCPD
c 5 CONFIG_CHCON
c 6 CONFIG_SYSLOGD
c 7 CONFIG_W
c 8 CONFIG_TIME
c 9 CONFIG_TAIL
c 10 CONFIG_KLOGD_SOURCE_RING_BUFFER
c 11 CONFIG_SULOGIN
c 12 CONFIG_FGREP
c 13 CONFIG_MDEV_CONF
c 14 CONFIG_LOAD_POLICY
c 15 CONFIG_UNSHARE
c 16 CONFIG_SLEEP_FLOAT
c 17 CONFIG_TOYBOX_UID_SYS
c 18 CONFIG_EGREP
c 19 CONFIG_ID
c 20 CONFIG_SETENFORCE
c 21 CONFIG_HELP_EXTRAS
c 22 CONFIG_LOGIN
c 23 CONFIG_KILL
c 24 CONFIG_FSFREEZE
c 25 CONFIG_GREP
c 26 CONFIG_XARGS_PEDANTIC
c 27 CONFIG_TOYBOX_ICONV
c 28 CONFIG_CP_MORE
c 29 CONFIG_MKE2FS_EXTENDED
c 30 CONFIG_GZIP
c 31 CONFIG_WHO
c 32 CONFIG_TOYBOX_FIFREEZE
c 33 CONFIG_CP
c 34 CONFIG_LS_COLOR
c 35 CONFIG_TAIL_SEEK
c 36 CONFIG_RUNCON
c 37 CONFIG_LSPCI_TEXT
c 38 CONFIG_XARGS
c 39 CONFIG_MKE2FS_GEN
c 40 CONFIG_CAT
c 41 CONFIG_TOYBOX_SHADOW
c 42 CONFIG_TOYBOX_SELINUX
c 43 CONFIG_KLOGD
c 44 CONFIG_MKE2FS
c 45 CONFIG_LSPCI
c 46 CONFIG_GZIP_D
c 47 CONFIG_ICONV
c 48 CONFIG_GETENFORCE
c 49 CONFIG_TOYBOX_FLOAT
c 50 CONFIG_TOYBOX_HELP
c 51 CONFIG_PASSWD
c 52 CONFIG_GUNZIP
c 53 CONFIG_FALLOCATE
c 54 CONFIG_TOYBOX_UID_USR
c 55 CONFIG_TOYBOX_CONTAINER
c 56 CONFIG_NETCAT_LISTEN
c 57 CONFIG_MKE2FS_LABEL
c 58 CONFIG_SEQ
c 59 CONFIG_MV_MORE
c 60 CONFIG_SORT_FLOAT
c 61 CONFIG_DECOMPRESS
c 62 CONFIG_SU
c 63 CONFIG_SORT
c 64 CONFIG_CD
c 65 CONFIG_ZCAT
c 66 CONFIG_TIMEOUT
c 67 CONFIG_LOGGER
c 68 CONFIG_ID_SELINUX
c 69 CONFIG_EXIT
c 70 CONFIG_NETCAT
c 71 CONFIG_MV
c 72 CONFIG_UPTIME
c 73 CONFIG_INSTALL
c 74 CONFIG_TOYBOX
c 75 CONFIG_MKE2FS_JOURNAL
c 76 CONFIG_TOYBOX_UTMPX
c 77 CONFIG_SLEEP
c 78 CONFIG_CAT_V
c 79 CONFIG_DEBUG_DHCP
c 80 CONFIG_TOYBOX_FALLOCATE
c 81 CONFIG_COMPRESS
c 82 CONFIG_MDEV
c 83 CONFIG_KILLALL5
c 84 CONFIG_TOYBOX_HELP_DASHDASH
c 85 __Root__
p cnf 85 163
85 0
-49 85 0
-60 85 0
-66 85 0
-2 85 0
-41 85 0
-62 85 0
-42 85 0
-5 85 0
-33 85 0
-28 85 0
-73 85 0
-31 85 0
-76 85 0
-32 85 0
-52 85 0
-61 85 0
-67 85 0
-6 85 0
-36 85 0
-17 85 0
-54 85 0
-59 85 0
-18 85 0
-25 85 0
-80 85 0
-38 85 0
-26 85 0
-13 85 0
-82 85 0
-71 85 0
-44 85 0
-75 85 0
-24 85 0
-53 85 0
-20 85 0
-77 85 0
-16 85 0
-46 85 0
-29 85 0
-47 85 0
-27 85 0
-64 85 0
-70 85 0
-56 85 0
-39 85 0
-15 85 0
-55 85 0
-68 85 0
-50 85 0
-3 85 0
-84 85 0
-37 85 0
-45 85 0
-74 85 0
-21 85 0
-12 85 0
-4 85 0
-79 85 0
-19 85 0
-57 85 0
-1 85 0
-34 85 0
-78 85 0
-40 85 0
-7 85 0
-58 85 0
-23 85 0
-83 85 0
-11 85 0
-69 85 0
-30 85 0
-81 85 0
-51 85 0
-8 85 0
-14 85 0
-43 85 0
-10 85 0
-48 85 0
-22 85 0
-9 85 0
-35 85 0
-65 85 0
-72 85 0
-63 85 0
49 -60 0
49 -66 0
2 -60 0
41 -62 0
-5 42 0
-28 33 0
28 -73 0
-31 76 0
33 -73 0
32 0
-52 61 0
6 -67 0
-36 42 0
17 0
54 0
28 -59 0
-18 25 0
80 0
-2 -49 60 0
-26 38 0
-13 82 0
-59 71 0
44 -75 0
-24 32 0
-53 80 0
-20 42 0
-16 77 0
-46 61 0
-29 44 0
27 -47 0
-64 0
-56 70 0
-39 44 0
-15 55 0
-28 59 -71 0
42 -68 0
-3 50 0
50 -84 0
-37 45 0
3 -21 74 0
12 -25 0
33 -71 0
4 -79 0
19 -68 0
-19 -42 68 0
44 -57 0
55 0
1 -34 0
-16 49 0
27 0
41 0
40 -78 0
-12 25 0
-7 76 0
49 -58 0
23 -83 0
-11 41 0
-21 74 0
-69 0
-30 81 0
28 33 -73 0
41 -51 0
-30 46 -61 0
18 -25 0
-8 49 0
-14 42 0
-10 43 0
42 -48 0
-22 41 0
9 -35 0
76 0
61 -65 0
74 0
16 -49 -77 0
3 -21 0
30 -46 0
-72 76 0
-2 63 0
